Problem:    
Rows:       192
Columns:    65 (48 integer, 48 binary)
Non-zeros:  584
Status:     INTEGER OPTIMAL
Objective:  value = 4.291099 (MINimum)

   No.   Row name        Activity     Lower bound   Upper bound
------ ------------    ------------- ------------- -------------
     1 r.5                   1004.29             0               
     2 r.6                   -999.24      -999.506               
     3 r.7                    4.2911             0               
     4 r.8                   1.13986      -998.559               
     5 r.9                   1004.29             0               
     6 r.10                  -998.86       -999.62               
     7 r.11                   4.2911             0               
     8 r.12                  1.13986      -998.916               
     9 r.13                   4.2911             0               
    10 r.14                 -999.622      -999.685               
    11 r.15                  1004.29             0               
    12 r.16                  -998.86      -999.182               
    13 r.17                   4.2911             0               
    14 r.18                 -999.867       -999.93               
    15 r.19                  1004.29             0               
    16 r.20                 -999.735      -999.858               
    17 r.21                  1004.29             0               
    18 r.22                 -999.735      -999.798               
    19 r.23                   4.2911             0               
    20 r.24                   0.2653      -999.549               
    21 r.25                  1004.29             0               
    22 r.26                 -999.937      -999.937               
    23 r.27                   4.2911             0               
    24 r.28                   0.0633      -999.882               
    25 r.29                   4.2911             0               
    26 r.30                   4.2911      -999.435               
    27 r.31                  1004.29             0               
    28 r.32                 -995.709        -999.1               
    29 r.33                  1004.29             0               
    30 r.34                 -995.709      -996.849               
    31 r.35                   4.2911             0               
    32 r.36                   4.2911      -991.701               
    33 r.37                        1             1             = 
    34 r.38                        1             1             = 
    35 r.39                        1             1             = 
    36 r.40                        1             1             = 
    37 r.41                        1             1             = 
    38 r.42                        1             1             = 
    39 r.43                        1             1             = 
    40 r.44                        1             1             = 
    41 r.45                        2             2               
    42 r.46                       -2         -1001               
    43 r.47                  -999.62       -999.62               
    44 r.48                     1000             2               
    45 r.49                    -1000         -1001               
    46 r.50                     2000      -998.916               
    47 r.51                     1001             2               
    48 r.52                    -1001         -1001               
    49 r.53                  999.618      -999.685               
    50 r.54                     1001             2               
    51 r.55                    -1001         -1001               
    52 r.56                     2000      -999.182               
    53 r.57                 0.626233      -999.506               
    54 r.58                  1001.01      -998.559               
    55 r.59                 -999.506      -999.506               
    56 r.60                 0.874555      -998.559               
    57 r.61                 -999.506      -999.506               
    58 r.62                 0.874555      -998.559               
    59 r.63                 -999.506      -999.506               
    60 r.64                 0.874555      -998.559               
    61 r.65                  3.53147      -999.435               
    62 r.66                 -996.469        -999.1               
    63 r.67                  3.15124      -999.435               
    64 r.68                 -996.849        -999.1               
    65 r.69                 -996.469      -996.849               
    66 r.70                  3.53147      -991.701               
    67 r.71                 -996.849      -996.849               
    68 r.72                  3.15124      -991.701               
    69 r.73                        2             2               
    70 r.74                       -2         -1001               
    71 r.75                   999.62      0.494333               
    72 r.76                     1000             2               
    73 r.77                    -1000         -1001               
    74 r.78                     2000       1.44141               
    75 r.79                     1001             2               
    76 r.80                    -1001         -1001               
    77 r.81                  999.238      -999.685               
    78 r.82                     1001             2               
    79 r.83                    -1001         -1001               
    80 r.84                     2000      -999.182               
    81 r.85                  1.00645       -999.62               
    82 r.86                  1001.01      -998.916               
    83 r.87                 -999.125       -999.62               
    84 r.88                 0.874555      -998.916               
    85 r.89                        2             2               
    86 r.90                       -2         -1001               
    87 r.91                -0.874555      -999.798               
    88 r.92                     1000             2               
    89 r.93                    -1000         -1001               
    90 r.94                  1999.13      -999.549               
    91 r.95                 -998.923       -999.62               
    92 r.96                  1.07655      -998.916               
    93 r.97                 -998.923       -999.62               
    94 r.98                  1.07655      -998.916               
    95 r.99                  3.15124      -999.435               
    96 r.100                -996.849        -999.1               
    97 r.101                 3.15124      -999.435               
    98 r.102                -996.849        -999.1               
    99 r.103                -996.849      -996.849               
   100 r.104                 3.15124      -991.701               
   101 r.105                -996.849      -996.849               
   102 r.106                 3.15124      -991.701               
   103 r.107                    1001             2               
   104 r.108                   -1001         -1001               
   105 r.109                 3000.38      0.494333               
   106 r.110                    1001             2               
   107 r.111                   -1001         -1001               
   108 r.112                    2000       1.44141               
   109 r.113                    1001             2               
   110 r.114                   -1001         -1001               
   111 r.115                 3000.76      0.380222               
   112 r.116                    1001             2               
   113 r.117                   -1001         -1001               
   114 r.118                    2000       1.08357               
   115 r.119                    1000             2               
   116 r.120                   -1000         -1001               
   117 r.121                 1999.76       -999.93               
   118 r.122                       2             2               
   119 r.123                      -2         -1001               
   120 r.124               -0.874555      -999.858               
   121 r.125                    1001             2               
   122 r.126                   -1001         -1001               
   123 r.127                 2999.89      -999.798               
   124 r.128                    1001             2               
   125 r.129                   -1001         -1001               
   126 r.130                 1999.13      -999.549               
   127 r.131                -999.685      -999.685               
   128 r.132                -998.923      -999.182               
   129 r.133                -999.685      -999.685               
   130 r.134                -998.923      -999.182               
   131 r.135                 1003.91      -999.435               
   132 r.136                   3.913        -999.1               
   133 r.137                 3.15124      -999.435               
   134 r.138                -996.849        -999.1               
   135 r.139                   3.913      -996.849               
   136 r.140                 1003.91      -991.701               
   137 r.141                -996.849      -996.849               
   138 r.142                 3.15124      -991.701               
   139 r.143                    1000             2               
   140 r.144                   -1000         -1001               
   141 r.145                 2000.24        0.3148               
   142 r.146                       2             2               
   143 r.147                      -2         -1001               
   144 r.148                0.874555      0.818331               
   145 r.149                    1001             2               
   146 r.150                   -1001         -1001               
   147 r.151                 3000.13      -999.798               
   148 r.152                    1001             2               
   149 r.153                   -1001         -1001               
   150 r.154                    2000      -999.549               
   151 r.155                 -999.93       -999.93               
   152 r.156                -999.798      -999.858               
   153 r.157                 -999.93       -999.93               
   154 r.158                -999.798      -999.858               
   155 r.159                       2             2               
   156 r.160                      -2         -1001               
   157 r.161                0.874555      0.380222               
   158 r.162                    1000             2               
   159 r.163                   -1000         -1001               
   160 r.164                 2000.87       1.08357               
   161 r.165                    1001             2               
   162 r.166                   -1001         -1001               
   163 r.167                 1000.11        0.3148               
   164 r.168                    1001             2               
   165 r.169                   -1001         -1001               
   166 r.170                 2000.87      0.818331               
   167 r.171                    1001             2               
   168 r.172                   -1001         -1001               
   169 r.173                 999.868        0.0701               
   170 r.174                    1001             2               
   171 r.175                   -1001         -1001               
   172 r.176                    2000        0.1423               
   173 r.177                -999.798      -999.798               
   174 r.178                   0.202      -999.549               
   175 r.179                -999.798      -999.798               
   176 r.180                   0.202      -999.549               
   177 r.181                  4.0258      -999.435               
   178 r.182                -995.974        -999.1               
   179 r.183                  4.0258      -999.435               
   180 r.184                -995.974        -999.1               
   181 r.185                    1001             2               
   182 r.186                   -1001         -1001               
   183 r.187                    2000      -996.849               
   184 r.188                    1001             2               
   185 r.189                   -1001         -1001               
   186 r.190                    2000      -991.701               
   187 r.191                    1001             2               
   188 r.192                   -1001         -1001               
   189 r.193                    2000      0.565256               
   190 r.194                    1001             2               
   191 r.195                   -1001         -1001               
   192 r.196                    2000      0.899573               

   No. Column name       Activity     Lower bound   Upper bound
------ ------------    ------------- ------------- -------------
     1 tt                     4.2911             0               
     2 s_1_1        *              1             0             1 
     3 t_1_1                 3.53147             0               
     4 s_1_7        *              0             0             1 
     5 s_1_8        *              1             0             1 
     6 s_2_1        *              0             0             1 
     7 t_2_1                 3.15124             0               
     8 s_2_7        *              1             0             1 
     9 s_2_8        *              0             0             1 
    10 s_1_2        *              1             0             1 
    11 t_1_2                 3.15124             0               
    12 s_2_2        *              0             0             1 
    13 t_2_2                 3.15124             0               
    14 s_1_3        *              0             0             1 
    15 t_1_3                 1003.91             0               
    16 s_2_3        *              1             0             1 
    17 t_2_3                 3.15124             0               
    18 s_1_4        *              0             0             1 
    19 t_1_4                 1004.16             0               
    20 s_2_4        *              1             0             1 
    21 t_2_4                  4.0258             0               
    22 s_1_5        *              1             0             1 
    23 t_1_5                  4.0258             0               
    24 s_2_5        *              0             0             1 
    25 t_2_5                  4.0258             0               
    26 s_1_6        *              1             0             1 
    27 t_1_6                  4.2278             0               
    28 s_2_6        *              0             0             1 
    29 t_2_6                  4.2278             0               
    30 t_1_7                       0             0               
    31 t_2_7                       0             0               
    32 t_1_8                       0             0               
    33 t_2_8                       0             0               
    34 r_1_1_2      *              0             0             1 
    35 u_1_1_2      *              1             0             1 
    36 r_2_1_2      *              1             0             1 
    37 u_2_1_2      *              0             0             1 
    38 r_1_1_3      *              1             0             1 
    39 u_1_1_3      *              0             0             1 
    40 r_2_1_3      *              1             0             1 
    41 u_2_1_3      *              0             0             1 
    42 r_1_2_3      *              1             0             1 
    43 u_1_2_3      *              0             0             1 
    44 r_2_2_3      *              1             0             1 
    45 u_2_2_3      *              0             0             1 
    46 r_1_2_5      *              0             0             1 
    47 u_1_2_5      *              0             0             1 
    48 r_2_2_5      *              1             0             1 
    49 u_2_2_5      *              0             0             1 
    50 r_1_3_4      *              1             0             1 
    51 u_1_3_4      *              0             0             1 
    52 r_2_3_4      *              0             0             1 
    53 u_2_3_4      *              0             0             1 
    54 r_1_3_5      *              1             0             1 
    55 u_1_3_5      *              0             0             1 
    56 r_2_3_5      *              1             0             1 
    57 u_2_3_5      *              0             0             1 
    58 r_1_4_5      *              1             0             1 
    59 u_1_4_5      *              0             0             1 
    60 r_2_4_5      *              1             0             1 
    61 u_2_4_5      *              0             0             1 
    62 r_1_7_8      *              1             0             1 
    63 u_1_7_8      *              0             0             1 
    64 r_2_7_8      *              1             0             1 
    65 u_2_7_8      *              0             0             1 

Integer feasibility conditions:

KKT.PE: max.abs.err = 4.55e-13 on row 105
        max.rel.err = 7.57e-17 on row 105
        High quality

KKT.PB: max.abs.err = 0.00e+00 on row 0
        max.rel.err = 0.00e+00 on row 0
        High quality

End of output
